%SETS
JOBS     = 1..10;
MACHINES = 1..5;
SPEED    = 1;

time        = array3d(JOBS,MACHINES,1..SPEED,[1, 3, 3, 4, 4, 5, 4, 9, 7, 6, 3, 2, 23, 2, 1, 1, 25, 1, 2, 1, 1, 3, 14, 2, 26, 1, 2, 3, 9, 17, 2, 3, 1, 10, 6, 1, 5, 10, 1, 3, 9, 28, 5, 1, 3, 1, 6, 1, 1, 4]);
energy      = array3d(JOBS,MACHINES,1..SPEED,[99, 97, 97, 96, 96, 95, 96, 91, 93, 94, 97, 98, 79, 98, 99, 99, 77, 99, 98, 99, 99, 97, 86, 98, 77, 99, 98, 97, 91, 84, 98, 97, 99, 90, 94, 99, 95, 90, 99, 97, 91, 75, 95, 99, 97, 99, 94, 99, 99, 96]);
precedence  = array2d(JOBS,MACHINES,[4, 1, 3, 0, 2, 2, 0, 3, 4, 1, 0, 2, 3, 4, 1, 3, 2, 1, 0, 4, 4, 3, 1, 0, 2, 3, 1, 4, 0, 2, 1, 3, 0, 2, 4, 3, 4, 1, 0, 2, 1, 4, 3, 2, 0, 2, 4, 1, 3, 0]);
releaseDate = [70, 50, 20, 50, 70, 20, 60, 0, 50, 0];
dueDate     = [86, 85, 55, 89, 146, 55, 86, 22, 79, 7];